c Qdimacs file from skolem function generator
p cnf 212 613
a 117 119 121 123 125 127 129 131 133 135 137 139 141 143 145 147 149 151 153 155 157 159 161 163 165 167 169 171 173 175 177 179 180 181 182 183 184 185 186 187 188 189 190 191 192 193 194 195 196 197 198 199 200 201 202 203 204 205 206 207 208 209 210 211 0
e 116 118 120 122 124 126 128 130 132 134 136 138 140 142 144 146 148 150 152 154 156 158 160 162 164 166 168 170 172 174 176 178 1 2 3 4 5 6 7 8 9 10 11 12 13 14 15 16 17 18 19 20 21 22 23 24 25 26 27 28 29 30 31 32 33 34 35 36 37 38 39 40 41 42 43 44 45 46 47 48 49 50 51 52 53 54 55 56 57 58 59 60 61 62 63 64 65 66 67 68 69 70 71 72 73 74 75 76 77 78 79 80 81 82 83 84 85 86 87 88 89 90 91 92 93 94 95 96 97 98 99 100 101 102 103 104 105 106 107 108 109 110 111 112 113 114 115 212 0
4 5 47 89 90 0
-4 -90 0
-4 -89 0
-4 -5 0
-4 -47 0
5 6 -7 0
5 118 -181 6 0
-5 -6 0
-5 -118 7 0
-5 181 7 0
6 -116 180 0
-6 116 0
-6 -180 0
7 45 -46 0
7 8 -44 -46 0
-7 46 0
-7 -8 -45 0
-7 44 -45 0
8 42 -43 0
8 9 -41 -43 0
-8 43 0
-8 -9 -42 0
-8 41 -42 0
9 39 -40 0
9 10 -38 -40 0
-9 40 0
-9 -10 -39 0
-9 38 -39 0
10 36 -37 0
10 11 -35 -37 0
-10 37 0
-10 -11 -36 0
-10 35 -36 0
11 33 -34 0
11 12 -32 -34 0
-11 34 0
-11 -12 -33 0
-11 32 -33 0
12 30 -31 0
12 13 -29 -31 0
-12 31 0
-12 -13 -30 0
-12 29 -30 0
13 27 -28 0
13 14 -26 -28 0
-13 28 0
-13 -14 -27 0
-13 26 -27 0
14 24 -25 0
14 15 -23 -25 0
-14 25 0
-14 -15 -24 0
-14 23 -24 0
15 21 -22 0
15 16 -20 -22 0
-15 22 0
-15 -16 -21 0
-15 20 -21 0
16 -17 -19 0
16 18 -19 0
-16 19 0
-16 17 -18 0
17 -178 210 0
17 -176 211 0
17 -176 -178 0
17 210 211 0
-17 178 -211 0
-17 176 -210 0
18 174 176 0
18 -209 -210 0
18 174 -210 0
18 176 -209 0
-18 -174 209 0
-18 -176 210 0
19 -174 208 0
19 -172 209 0
19 -172 -174 0
19 208 209 0
-19 174 -209 0
-19 172 -208 0
20 170 172 0
20 -207 -208 0
20 170 -208 0
20 172 -207 0
-20 -170 207 0
-20 -172 208 0
21 -170 206 0
21 -168 207 0
21 -168 -170 0
21 206 207 0
-21 170 -207 0
-21 168 -206 0
22 166 168 0
22 -205 -206 0
22 166 -206 0
22 168 -205 0
-22 -166 205 0
-22 -168 206 0
23 -166 204 0
23 -164 205 0
23 -164 -166 0
23 204 205 0
-23 166 -205 0
-23 164 -204 0
24 162 164 0
24 -203 -204 0
24 162 -204 0
24 164 -203 0
-24 -162 203 0
-24 -164 204 0
25 -162 202 0
25 -160 203 0
25 -160 -162 0
25 202 203 0
-25 162 -203 0
-25 160 -202 0
26 158 160 0
26 -201 -202 0
26 158 -202 0
26 160 -201 0
-26 -158 201 0
-26 -160 202 0
27 -158 200 0
27 -156 201 0
27 -156 -158 0
27 200 201 0
-27 158 -201 0
-27 156 -200 0
28 154 156 0
28 -199 -200 0
28 154 -200 0
28 156 -199 0
-28 -154 199 0
-28 -156 200 0
29 -154 198 0
29 -152 199 0
29 -152 -154 0
29 198 199 0
-29 154 -199 0
-29 152 -198 0
30 150 152 0
30 -197 -198 0
30 150 -198 0
30 152 -197 0
-30 -150 197 0
-30 -152 198 0
31 -150 196 0
31 -148 197 0
31 -148 -150 0
31 196 197 0
-31 150 -197 0
-31 148 -196 0
32 146 148 0
32 -195 -196 0
32 146 -196 0
32 148 -195 0
-32 -146 195 0
-32 -148 196 0
33 -146 194 0
33 -144 195 0
33 -144 -146 0
33 194 195 0
-33 146 -195 0
-33 144 -194 0
34 142 144 0
34 -193 -194 0
34 142 -194 0
34 144 -193 0
-34 -142 193 0
-34 -144 194 0
35 -142 192 0
35 -140 193 0
35 -140 -142 0
35 192 193 0
-35 142 -193 0
-35 140 -192 0
36 138 140 0
36 -191 -192 0
36 138 -192 0
36 140 -191 0
-36 -138 191 0
-36 -140 192 0
37 -138 190 0
37 -136 191 0
37 -136 -138 0
37 190 191 0
-37 138 -191 0
-37 136 -190 0
38 134 136 0
38 -189 -190 0
38 134 -190 0
38 136 -189 0
-38 -134 189 0
-38 -136 190 0
39 -134 188 0
39 -132 189 0
39 -132 -134 0
39 188 189 0
-39 134 -189 0
-39 132 -188 0
40 130 132 0
40 -187 -188 0
40 130 -188 0
40 132 -187 0
-40 -130 187 0
-40 -132 188 0
41 -130 186 0
41 -128 187 0
41 -128 -130 0
41 186 187 0
-41 130 -187 0
-41 128 -186 0
42 126 128 0
42 -185 -186 0
42 126 -186 0
42 128 -185 0
-42 -126 185 0
-42 -128 186 0
43 -126 184 0
43 -124 185 0
43 -124 -126 0
43 184 185 0
-43 126 -185 0
-43 124 -184 0
44 122 124 0
44 -183 -184 0
44 122 -184 0
44 124 -183 0
-44 -122 183 0
-44 -124 184 0
45 -122 182 0
45 -120 183 0
45 -120 -122 0
45 182 183 0
-45 122 -183 0
-45 120 -182 0
46 118 120 0
46 -181 -182 0
46 118 -182 0
46 120 -181 0
-46 -118 181 0
-46 -120 182 0
47 48 -49 0
47 118 -119 48 0
-47 -48 0
-47 -118 49 0
-47 119 49 0
48 -116 117 0
-48 116 0
-48 -117 0
49 87 -88 0
49 50 -86 -88 0
-49 88 0
-49 -50 -87 0
-49 86 -87 0
50 84 -85 0
50 51 -83 -85 0
-50 85 0
-50 -51 -84 0
-50 83 -84 0
51 81 -82 0
51 52 -80 -82 0
-51 82 0
-51 -52 -81 0
-51 80 -81 0
52 78 -79 0
52 53 -77 -79 0
-52 79 0
-52 -53 -78 0
-52 77 -78 0
53 75 -76 0
53 54 -74 -76 0
-53 76 0
-53 -54 -75 0
-53 74 -75 0
54 72 -73 0
54 55 -71 -73 0
-54 73 0
-54 -55 -72 0
-54 71 -72 0
55 69 -70 0
55 56 -68 -70 0
-55 70 0
-55 -56 -69 0
-55 68 -69 0
56 66 -67 0
56 57 -65 -67 0
-56 67 0
-56 -57 -66 0
-56 65 -66 0
57 63 -64 0
57 58 -62 -64 0
-57 64 0
-57 -58 -63 0
-57 62 -63 0
58 -59 -61 0
58 60 -61 0
-58 61 0
-58 59 -60 0
59 -176 179 0
59 177 -178 0
59 177 179 0
59 -176 -178 0
-59 176 -177 0
-59 178 -179 0
60 -175 176 0
60 174 -177 0
60 174 176 0
60 -175 -177 0
-60 -174 175 0
-60 -176 177 0
61 -172 175 0
61 173 -174 0
61 173 175 0
61 -172 -174 0
-61 172 -173 0
-61 174 -175 0
62 -171 172 0
62 170 -173 0
62 170 172 0
62 -171 -173 0
-62 -170 171 0
-62 -172 173 0
63 -168 171 0
63 169 -170 0
63 169 171 0
63 -168 -170 0
-63 168 -169 0
-63 170 -171 0
64 -167 168 0
64 166 -169 0
64 166 168 0
64 -167 -169 0
-64 -166 167 0
-64 -168 169 0
65 -164 167 0
65 165 -166 0
65 165 167 0
65 -164 -166 0
-65 164 -165 0
-65 166 -167 0
66 -163 164 0
66 162 -165 0
66 162 164 0
66 -163 -165 0
-66 -162 163 0
-66 -164 165 0
67 -160 163 0
67 161 -162 0
67 161 163 0
67 -160 -162 0
-67 160 -161 0
-67 162 -163 0
68 -159 160 0
68 158 -161 0
68 158 160 0
68 -159 -161 0
-68 -158 159 0
-68 -160 161 0
69 -156 159 0
69 157 -158 0
69 157 159 0
69 -156 -158 0
-69 156 -157 0
-69 158 -159 0
70 -155 156 0
70 154 -157 0
70 154 156 0
70 -155 -157 0
-70 -154 155 0
-70 -156 157 0
71 -152 155 0
71 153 -154 0
71 153 155 0
71 -152 -154 0
-71 152 -153 0
-71 154 -155 0
72 -151 152 0
72 150 -153 0
72 150 152 0
72 -151 -153 0
-72 -150 151 0
-72 -152 153 0
73 -148 151 0
73 149 -150 0
73 149 151 0
73 -148 -150 0
-73 148 -149 0
-73 150 -151 0
74 -147 148 0
74 146 -149 0
74 146 148 0
74 -147 -149 0
-74 -146 147 0
-74 -148 149 0
75 -144 147 0
75 145 -146 0
75 145 147 0
75 -144 -146 0
-75 144 -145 0
-75 146 -147 0
76 -143 144 0
76 142 -145 0
76 142 144 0
76 -143 -145 0
-76 -142 143 0
-76 -144 145 0
77 -140 143 0
77 141 -142 0
77 141 143 0
77 -140 -142 0
-77 140 -141 0
-77 142 -143 0
78 -139 140 0
78 138 -141 0
78 138 140 0
78 -139 -141 0
-78 -138 139 0
-78 -140 141 0
79 -136 139 0
79 137 -138 0
79 137 139 0
79 -136 -138 0
-79 136 -137 0
-79 138 -139 0
80 -135 136 0
80 134 -137 0
80 134 136 0
80 -135 -137 0
-80 -134 135 0
-80 -136 137 0
81 -132 135 0
81 133 -134 0
81 133 135 0
81 -132 -134 0
-81 132 -133 0
-81 134 -135 0
82 -131 132 0
82 130 -133 0
82 130 132 0
82 -131 -133 0
-82 -130 131 0
-82 -132 133 0
83 -128 131 0
83 129 -130 0
83 129 131 0
83 -128 -130 0
-83 128 -129 0
-83 130 -131 0
84 -127 128 0
84 126 -129 0
84 126 128 0
84 -127 -129 0
-84 -126 127 0
-84 -128 129 0
85 -124 127 0
85 125 -126 0
85 125 127 0
85 -124 -126 0
-85 124 -125 0
-85 126 -127 0
86 -123 124 0
86 122 -125 0
86 122 124 0
86 -123 -125 0
-86 -122 123 0
-86 -124 125 0
87 -120 123 0
87 121 -122 0
87 121 123 0
87 -120 -122 0
-87 120 -121 0
-87 122 -123 0
88 -119 120 0
88 118 -121 0
88 118 120 0
88 -119 -121 0
-88 -118 119 0
-88 -120 121 0
89 116 -117 0
89 116 -180 0
-89 -116 0
-89 117 180 0
90 91 108 0
90 91 103 0
90 91 112 0
-90 -91 0
-90 -103 -108 -112 0
91 -92 -97 -101 -102 0
-91 102 0
-91 92 0
-91 101 0
-91 97 0
92 -93 -94 -95 -96 0
-92 96 0
-92 93 0
-92 95 0
-92 94 0
93 -77 -78 -79 -80 0
-93 80 0
-93 77 0
-93 79 0
-93 78 0
94 -73 -74 -75 -76 0
-94 76 0
-94 73 0
-94 75 0
-94 74 0
95 -85 -86 -87 -88 0
-95 88 0
-95 85 0
-95 87 0
-95 86 0
96 -81 -82 -83 -84 0
-96 84 0
-96 81 0
-96 83 0
-96 82 0
97 -59 -60 -98 -99 0
-97 99 0
-97 59 0
-97 98 0
-97 60 0
98 -61 -62 -63 -64 0
-98 64 0
-98 61 0
-98 63 0
-98 62 0
99 178 48 100 0
99 -179 48 100 0
-99 -100 0
-99 -48 0
-99 -178 179 0
100 118 -119 0
-100 -118 0
-100 119 0
101 -69 -70 -71 -72 0
-101 72 0
-101 69 0
-101 71 0
-101 70 0
102 -65 -66 -67 -68 0
-102 68 0
-102 65 0
-102 67 0
-102 66 0
103 -104 -105 -106 -107 0
-103 107 0
-103 104 0
-103 106 0
-103 105 0
104 -35 -36 -37 -38 0
-104 38 0
-104 35 0
-104 37 0
-104 36 0
105 -31 -32 -33 -34 0
-105 34 0
-105 31 0
-105 33 0
-105 32 0
106 -43 -44 -45 -46 0
-106 46 0
-106 43 0
-106 45 0
-106 44 0
107 -39 -40 -41 -42 0
-107 42 0
-107 39 0
-107 41 0
-107 40 0
108 -17 -18 -109 -110 0
-108 110 0
-108 17 0
-108 109 0
-108 18 0
109 -19 -20 -21 -22 0
-109 22 0
-109 19 0
-109 21 0
-109 20 0
110 178 6 111 0
110 -211 6 111 0
-110 -111 0
-110 -6 0
-110 -178 211 0
111 118 -181 0
-111 -118 0
-111 181 0
112 -25 -26 -113 -114 0
-112 114 0
-112 25 0
-112 113 0
-112 26 0
113 -27 -28 -29 -30 0
-113 30 0
-113 27 0
-113 29 0
-113 28 0
114 -23 -24 0
-114 23 0
-114 24 0
115 5 47 89 90 0
-115 -90 0
-115 -89 0
-115 -5 0
-115 -47 0
212 0
2 -4 0
-2 4 0
3 -115 0
-3 115 0
3 0

